3
30
7464
[[ 91,274,392,968,440,457,967,366, 64,698,735,273,174,326,397,851,751,112,339,634, 56,907,427,514, 73,400,629,327,876,883],
 [909,726,608, 32,560,543, 33,634,936,302,265,727,826,674,603,149,249,888,661,366,944, 93,573,486,927,600,371,673,124,117],
 [ 48, 46,  2, 19, 77, 64, 15, 81, 83, 73, 42, 46, 76, 47, 91, 38,  9, 39, 57, 76, 25, 19, 16, 34, 20, 27,  3, 40, 79, 91]]
[110,616,209,501,609,288,844, 65,895,993, 29,124,622,471,896,999,160,350,599, 30,544,561,788, 40,643,406,656,607,620,653]